BAYES
76
2 2 2 2 2 2 2 2 2 2 2 2 2 2 2 2 2 2 2 2 2 2 2 2 2 2 2 2 2 2 2 2 2 2 2 2 2 2 2 2 2 2 2 2 2 2 2 2 2 2 2 2 2 2 2 2 2 2 2 2 2 2 2 2 2 2 2 2 2 2 2 2 2 2 2 2
76
1 0
1 1
3 0 1 2
1 3
1 4
1 5
1 6
1 7
1 8
1 9
4 2 3 9 10
4 2 4 10 11
1 12
1 13
5 8 11 12 13 14
1 15
3 14 15 16
1 17
1 18
1 19
4 17 18 19 20
1 21
1 22
1 23
4 21 22 23 24
1 25
1 26
6 2 17 26 18 19 27
5 2 21 22 23 28
8 7 16 20 24 25 27 28 29
1 30
1 31
1 32
1 33
8 5 6 29 30 31 32 33 34
2 34 35
2 4 36
2 4 37
4 30 36 37 38
1 39
1 40
1 41
4 30 39 40 42
1 43
1 44
4 30 43 44 45
1 46
4 30 43 44 47
4 45 46 47 48
1 49
1 50
1 51
4 30 50 51 52
4 30 41 50 53
4 49 52 53 54
5 2 8 30 23 55
5 2 8 30 18 56
4 7 55 56 57
2 36 58
3 23 18 59
2 46 60
3 46 60 61
3 46 60 62
3 57 60 63
3 42 60 64
2 16 65
3 18 19 66
4 57 46 63 67
4 42 46 64 68
1 69
4 38 18 69 70
4 7 38 70 71
2 6 72
2 33 73
2 30 74
2 5 75

2
0.995 0.005
2
0.995 0.005
8
0.9999 0.0001 0.0 1.0 0.0 1.0 0.5 0.5
2
0.97 0.03
2
0.95 0.05
2
0.9 0.1
2
0.98 0.02
2
0.8 0.2
2
0.9 0.1
2
0.9999 0.0001
16
0.99 0.01 0.1 0.9 0.0 1.0 0.5 0.5 0.05 0.95 0.5 0.5 0.5 0.5 0.5 0.5
16
1.0 0.0 0.0 1.0 1.0 0.0 0.0 1.0 0.0 1.0 0.0 1.0 1.0 0.0 0.0 1.0
2
0.99 0.01
2
0.99 0.01
32
0.99 0.01 0.1 0.9 0.1 0.9 0.5 0.5 0.9 0.1 0.5 0.5 0.5 0.5 0.5 0.5 0.2 0.8 0.5 0.5 0.5 0.5 0.5 0.5 0.5 0.5 0.5 0.5 0.5 0.5 0.5 0.5
2
0.99 0.01
8
0.99 0.01 0.0 1.0 0.0 1.0 0.5 0.5
2
0.97 0.03
2
0.98 0.02
2
0.7 0.3
16
0.99 0.01 0.0 1.0 0.1 0.9 0.5 0.5 0.0 1.0 0.5 0.5 0.5 0.5 0.5 0.5
2
0.98 0.02
2
0.99 0.01
2
0.99 0.01
16
0.999 0.001 0.0 1.0 0.0 1.0 0.5 0.5 0.01 0.99 0.5 0.5 0.5 0.5 0.5 0.5
2
0.15 0.85
2
0.8 0.2
64
0.99 0.01 0.2 0.8 0.0 1.0 0.5 0.5 0.0 1.0 0.5 0.5 0.5 0.5 0.5 0.5 0.1 0.9 0.5 0.5 0.5 0.5 0.5 0.5 0.5 0.5 0.5 0.5 0.5 0.5 0.5 0.5 0.0 1.0 0.5 0.5 0.5 0.5 0.5 0.5 0.5 0.5 0.5 0.5 0.5 0.5 0.5 0.5 0.5 0.5 0.5 0.5 0.5 0.5 0.5 0.5 0.5 0.5 0.5 0.5 0.5 0.5 0.5 0.5
32
1.0 0.0 0.1 0.9 0.0 1.0 0.5 0.5 0.0 1.0 0.5 0.5 0.5 0.5 0.5 0.5 0.1 0.9 0.5 0.5 0.5 0.5 0.5 0.5 0.5 0.5 0.5 0.5 0.5 0.5 0.5 0.5
256
1.0 0.0 1.0 0.0 1.0 0.0 1.0 0.0 1.0 0.0 1.0 0.0 1.0 0.0 1.0 0.0 1.0 0.0 1.0 0.0 1.0 0.0 1.0 0.0 1.0 0.0 1.0 0.0 1.0 0.0 1.0 0.0 1.0 0.0 1.0 0.0 0.0 1.0 0.0 1.0 1.0 0.0 0.0 1.0 0.0 1.0 0.0 1.0 0.0 1.0 1.0 0.0 0.0 1.0 0.0 1.0 0.0 1.0 0.0 1.0 0.0 1.0 0.0 1.0 1.0 0.0 0.0 1.0 1.0 0.0 0.0 1.0 1.0 0.0 0.0 1.0 1.0 0.0 0.0 1.0 1.0 0.0 0.0 1.0 1.0 0.0 0.0 1.0 1.0 0.0 0.0 1.0 1.0 0.0 0.0 1.0 1.0 0.0 1.0 0.0 0.0 1.0 0.0 1.0 1.0 0.0 0.0 1.0 0.0 1.0 0.0 1.0 0.0 1.0 1.0 0.0 0.0 1.0 0.0 1.0 0.0 1.0 0.0 1.0 0.0 1.0 0.0 1.0 0.0 1.0 1.0 0.0 0.0 1.0 1.0 0.0 0.0 1.0 1.0 0.0 0.0 1.0 1.0 0.0 0.0 1.0 1.0 0.0 0.0 1.0 1.0 0.0 0.0 1.0 1.0 0.0 0.0 1.0 1.0 0.0 1.0 0.0 1.0 0.0 0.0 1.0 0.0 1.0 1.0 0.0 0.0 1.0 0.0 1.0 0.0 1.0 0.0 1.0 1.0 0.0 0.0 1.0 0.0 1.0 0.0 1.0 0.0 1.0 0.0 1.0 0.0 1.0 0.0 1.0 0.0 1.0 0.0 1.0 0.0 1.0 0.0 1.0 0.0 1.0 0.0 1.0 0.0 1.0 0.0 1.0 0.0 1.0 0.0 1.0 0.0 1.0 0.0 1.0 0.0 1.0 0.0 1.0 0.0 1.0 1.0 0.0 1.0 0.0 0.0 1.0 0.0 1.0 1.0 0.0 0.0 1.0 0.0 1.0 0.0 1.0 0.0 1.0 1.0 0.0 0.0 1.0 0.0 1.0 0.0 1.0 0.0 1.0 0.0 1.0 0.0 1.0
2
0.95 0.05
2
0.94 0.06
2
0.85 0.15
2
0.995 0.005
256
0.99 0.01 0.0 1.0 0.0 1.0 0.5 0.5 0.0 1.0 0.5 0.5 0.5 0.5 0.5 0.5 0.1 0.9 0.5 0.5 0.5 0.5 0.5 0.5 0.5 0.5 0.5 0.5 0.5 0.5 0.5 0.5 0.0 1.0 0.5 0.5 0.5 0.5 0.5 0.5 0.5 0.5 0.5 0.5 0.5 0.5 0.5 0.5 0.5 0.5 0.5 0.5 0.5 0.5 0.5 0.5 0.5 0.5 0.5 0.5 0.5 0.5 0.5 0.5 0.02 0.98 0.5 0.5 0.5 0.5 0.5 0.5 0.5 0.5 0.5 0.5 0.5 0.5 0.5 0.5 0.5 0.5 0.5 0.5 0.5 0.5 0.5 0.5 0.5 0.5 0.5 0.5 0.5 0.5 0.5 0.5 0.5 0.5 0.5 0.5 0.5 0.5 0.5 0.5 0.5 0.5 0.5 0.5 0.5 0.5 0.5 0.5 0.5 0.5 0.5 0.5 0.5 0.5 0.5 0.5 0.5 0.5 0.5 0.5 0.5 0.5 0.5 0.5 0.01 0.99 0.5 0.5 0.5 0.5 0.5 0.5 0.5 0.5 0.5 0.5 0.5 0.5 0.5 0.5 0.5 0.5 0.5 0.5 0.5 0.5 0.5 0.5 0.5 0.5 0.5 0.5 0.5 0.5 0.5 0.5 0.5 0.5 0.5 0.5 0.5 0.5 0.5 0.5 0.5 0.5 0.5 0.5 0.5 0.5 0.5 0.5 0.5 0.5 0.5 0.5 0.5 0.5 0.5 0.5 0.5 0.5 0.5 0.5 0.5 0.5 0.5 0.5 0.5 0.5 0.5 0.5 0.5 0.5 0.5 0.5 0.5 0.5 0.5 0.5 0.5 0.5 0.5 0.5 0.5 0.5 0.5 0.5 0.5 0.5 0.5 0.5 0.5 0.5 0.5 0.5 0.5 0.5 0.5 0.5 0.5 0.5 0.5 0.5 0.5 0.5 0.5 0.5 0.5 0.5 0.5 0.5 0.5 0.5 0.5 0.5 0.5 0.5 0.5 0.5 0.5 0.5 0.5 0.5 0.5 0.5 0.5 0.5 0.5 0.5 0.5 0.5
4
1.0 0.0 0.0 1.0
4
1.0 0.0 0.99000001 0.00999999
4
0.99000001 0.00999999 1.0 0.0
16
0.99900001 0.00099999 0.25 0.75 0.00099999 0.99900001 0.5 0.5 0.00099999 0.99900001 0.5 0.5 0.5 0.5 0.5 0.5
2
0.95 0.05
2
0.98 0.02
2
0.95 0.05
16
0.99 0.01 0.3 0.7 0.00999999 0.99000001 0.5 0.5 0.1 0.9 0.5 0.5 0.5 0.5 0.5 0.5
2
0.95 0.05
2
0.99 0.01
16
0.999 0.001 0.25 0.75 0.1 0.9 0.5 0.5 0.0 1.0 0.5 0.5 0.5 0.5 0.5 0.5
2
0.4 0.6
16
0.999 0.001 0.25 0.75 0.1 0.9 0.5 0.5 1.0 0.0 0.5 0.5 0.5 0.5 0.5 0.5
16
0.0 1.0 0.0 1.0 0.0 1.0 1.0 0.0 1.0 0.0 1.0 0.0 0.0 1.0 1.0 0.0
2
0.9 0.1
2
0.98 0.02
2
0.9 0.1
16
0.99000001 0.00999999 0.5 0.5 0.1 0.9 0.5 0.5 0.0 1.0 0.5 0.5 0.5 0.5 0.5 0.5
16
0.99000001 0.00999999 0.5 0.5 0.1 0.9 0.5 0.5 0.1 0.9 0.5 0.5 0.5 0.5 0.5 0.5
16
0.0 1.0 0.0 1.0 1.0 0.0 0.0 1.0 0.0 1.0 1.0 0.0 1.0 0.0 1.0 0.0
32
1.0 0.0 0.2 0.8 0.4 0.6 0.5 0.5 0.2 0.8 0.5 0.5 0.5 0.5 0.5 0.5 0.1 0.9 0.5 0.5 0.5 0.5 0.5 0.5 0.5 0.5 0.5 0.5 0.5 0.5 0.5 0.5
32
1.0 0.0 0.3 0.7 0.4 0.6 0.5 0.5 0.2 0.8 0.5 0.5 0.5 0.5 0.5 0.5 0.4 0.6 0.5 0.5 0.5 0.5 0.5 0.5 0.5 0.5 0.5 0.5 0.5 0.5 0.5 0.5
16
1.0 0.0 1.0 0.0 0.0 1.0 1.0 0.0 1.0 0.0 0.0 1.0 0.0 1.0 0.0 1.0
4
0.99 0.01 0.1 0.9
8
1.0 0.0 0.5 0.5 0.5 0.5 0.5 0.5
4
0.98 0.02 1.0 0.0
8
1.0 0.0 1.0 0.0 0.05 0.95 1.0 0.0
8
0.99900001 0.00099999 1.0 0.0 0.00099999 0.99900001 1.0 0.0
8
1.0 0.0 0.0 1.0 0.1 0.9 0.5 0.5
8
1.0 0.0 0.0 1.0 0.3 0.7 0.5 0.5
4
0.8 0.2 0.2 0.8
8
0.9999 0.0001 0.25 0.75 0.7 0.3 0.5 0.5
16
1.0 0.0 1.0 0.0 1.0 0.0 0.0 1.0 0.0 1.0 0.0 1.0 1.0 0.0 0.0 1.0
16
0.0 1.0 0.0 1.0 0.0 1.0 1.0 0.0 1.0 0.0 1.0 0.0 0.0 1.0 1.0 0.0
2
0.99 0.01
16
0.99900001 0.00099999 0.0 1.0 0.25 0.75 0.5 0.5 0.25 0.75 0.5 0.5 0.5 0.5 0.5 0.5
16
1.0 0.0 1.0 0.0 0.0 1.0 1.0 0.0 1.0 0.0 0.0 1.0 0.0 1.0 0.0 1.0
4
0.99900001 0.00099999 0.00099999 0.99900001
4
0.99900001 0.00099999 0.00099999 0.99900001
4
0.99900001 0.00099999 0.2 0.8
4
0.99000001 0.00999999 0.00999999 0.99000001